100 500
297 153
70 884
834 414
5 759
121 35
478 416
171 551
492 420
634 187
708 608
568 979
13 94
200 98
48 572
113 523
96 797
523 245
970 568
727 369
544 5
934 928
824 796
478 886
140 176
419 358
907 207
636 950
371 126
359 698
901 225
158 165
517 599
416 556
853 564
961 569
697 196
555 503
153 304
695 1
520 431
143 960
181 384
584 534
173 522
338 474
671 107
934 814
853 969
128 244
559 577
434 772
625 847
52 457
713 83
305 398
195 8
840 402
949 796
435 350
109 766
894 304
625 561
464 358
995 692
45 226
998 310
798 777
731 326
394 462
399 560
389 519
324 435
244 961
261 782
483 255
695 925
851 507
208 905
255 64
847 592
787 831
691 329
200 131
645 455
902 896
927 443
251 858
133 606
840 295
317 875
759 477
858 141
146 258
854 390
577 590
734 703
724 456
376 407
357 409
293 664
